3
30
8135
[[474,589,924, 76,831,117,471,517,927,422,935,995,742,697,979,355,634, 55,798,908,308,227,129,988,570,180,185,267,900,243],
 [838,901,551,388,390,934,629,466,493,388,818,480,620, 87,274,583, 57,198, 40,729, 96,155,458,117,841,942,165,145,420, 15],
 [944,682,789,192,197,206,320,125,548,243,516,414,871, 61,268,723,642,647, 55,908,566,487,642,521,860, 77,489,500,925, 83]]
[817,429,325,439,554,845,402,479,506,288,915,595,145,559,539, 84,119,556,990,964,321,922,352,564,626,801,232,930, 93,879]